\ENCODING=ISO-8859-1
\Problem name: IloCplex

Minimize
 obj1: x_a_0 + x_a_1 + x_a_2 + 2 x_a_3 + 2 x_a_4 + 3 x_a_5 + 3 x_a_6 + x_a_7
       + 3 x_a_8 + 3 x_a_9 + x_a_10 + 2 x_a_11 + 3 x_a_12 + 3 x_a_13 + 3 x_a_14
       + x_a_15 + 2 x_a_16 + 2 x_a_17 + 2 x_a_18 + 3 x_a_19 + 2 x_a_20 + x_a_21
       + x_a_22 + x_a_23 + 2 x_a_24 + 3 x_a_25 + 2 x_a_26 + x_a_27 + 2 x_a_28
       + x_a_29 + x_a_30 + x_a_31 + x_a_32 + 2 x_a_33 + x_a_34 + 10 x_a_35
       + 10 x_a_36 + 10 x_a_37 + 10 x_a_38 + 10 x_a_39 + 10 x_a_40 + 10 x_a_41
       + 10 x_a_42 + 10000 x_a_43
Subject To
 c1:  y_a_35 + y_a_36 + y_a_37 + y_a_38 <= 9
 c2:  - y_a_37 + y_a_0 + y_a_1 + y_a_2  = 0
 c3:  - y_a_0 + y_a_3 + y_a_4 + y_a_5 + y_a_6 + y_a_7  = 0
 c4:  - y_a_3 + y_a_8 + y_a_9 + y_a_10 + y_a_11 + y_a_12  = 0
 c5:  - y_a_1 - y_a_4 - y_a_8 + y_a_13 + y_a_14 + y_a_15  = 0
 c6:  - y_a_13 + y_a_16 + y_a_17 + y_a_18 + y_a_19  = 0
 c7:  - y_a_5 + y_a_20 + y_a_21 + y_a_22 + y_a_23 + y_a_42  = 0
 c8:  - y_a_9 - y_a_16 + y_a_24 + y_a_25  = 0
 c9:  - y_a_38 - y_a_6 - y_a_10 + y_a_26 + y_a_27 + y_a_28 + y_a_29  = 0
 c10: - y_a_2 - y_a_14 - y_a_26  = 0
 c11: - y_a_11 - y_a_17 + y_a_41  = 0
 c12: - y_a_36 - y_a_12 + y_a_30 + y_a_31  = 0
 c13: - y_a_24 - y_a_30 + y_a_32 + y_a_33  = 0
 c14: - y_a_15 - y_a_20 + y_a_34  = 0
 c15: - y_a_7 + y_a_39 + y_a_40  = 0
 c16: - y_a_27 - y_a_31 - y_a_34  = 0
 c17: - y_a_18 - y_a_21 - y_a_32  = 0
 c18: - y_a_22 - y_a_25 - y_a_28  = 0
 c19: - y_a_35 - y_a_19 - y_a_23 - y_a_29 - y_a_33  = 0
 c20: y_a_35 + y_a_36 + y_a_37 + y_a_38 - y_a_43  = 0
 c21: - y_a_42 - y_a_41 - y_a_39 - y_a_40 + y_a_43  = 0
 c22: y_a_0 + 6 x_a_0 <= 6
 c23: y_a_1 + 11 x_a_1 <= 11
 c24: y_a_2 + 22 x_a_2 <= 22
 c25: y_a_3 + 47 x_a_3 <= 47
 c26: y_a_4 + 40 x_a_4 <= 40
 c27: y_a_5 + 35 x_a_5 <= 35
 c28: y_a_6 + 39 x_a_6 <= 39
 c29: y_a_7 + 45 x_a_7 <= 45
 c30: y_a_8 + 2 x_a_8 <= 2
 c31: y_a_9 + 38 x_a_9 <= 38
 c32: y_a_10 + 42 x_a_10 <= 42
 c33: y_a_11 + 42 x_a_11 <= 42
 c34: y_a_12 + 9 x_a_12 <= 9
 c35: y_a_13 + 38 x_a_13 <= 38
 c36: y_a_14 + 27 x_a_14 <= 27
 c37: y_a_15 + 4 x_a_15 <= 4
 c38: y_a_16 + 29 x_a_16 <= 29
 c39: y_a_17 + 5 x_a_17 <= 5
 c40: y_a_18 + 21 x_a_18 <= 21
 c41: y_a_19 + 46 x_a_19 <= 46
 c42: y_a_20 + 46 x_a_20 <= 46
 c43: y_a_21 + 43 x_a_21 <= 43
 c44: y_a_22 + 47 x_a_22 <= 47
 c45: y_a_23 + 20 x_a_23 <= 20
 c46: y_a_24 + 6 x_a_24 <= 6
 c47: y_a_25 + 6 x_a_25 <= 6
 c48: y_a_26 + 15 x_a_26 <= 15
 c49: y_a_27 + 46 x_a_27 <= 46
 c50: y_a_28 + 47 x_a_28 <= 47
 c51: y_a_29 + 14 x_a_29 <= 14
 c52: y_a_30 + 32 x_a_30 <= 32
 c53: y_a_31 + 37 x_a_31 <= 37
 c54: y_a_32 + 25 x_a_32 <= 25
 c55: y_a_33 + x_a_33 <= 1
 c56: y_a_34 + 25 x_a_34 <= 25
 c57: y_a_35 + 10 x_a_35 <= 10
 c58: y_a_36 + 10 x_a_36 <= 10
 c59: y_a_37 + 10 x_a_37 <= 10
 c60: y_a_38 + 10 x_a_38 <= 10
 c61: y_a_39 + 10 x_a_39 <= 10
 c62: y_a_40 + 10 x_a_40 <= 10
 c63: y_a_41 + 10 x_a_41 <= 10
 c64: y_a_42 + 10 x_a_42 <= 10
 c65: y_a_43 + 10000 x_a_43 <= 10000
Bounds
 0 <= y_a_35 <= 10
 0 <= y_a_36 <= 10
 0 <= y_a_37 <= 10
 0 <= y_a_38 <= 10
 0 <= y_a_0 <= 6
 0 <= y_a_1 <= 11
 0 <= y_a_2 <= 22
 0 <= y_a_3 <= 47
 0 <= y_a_4 <= 40
 0 <= y_a_5 <= 35
 0 <= y_a_6 <= 39
 0 <= y_a_7 <= 45
 0 <= y_a_8 <= 2
 0 <= y_a_9 <= 38
 0 <= y_a_10 <= 42
 0 <= y_a_11 <= 42
 0 <= y_a_12 <= 9
 0 <= y_a_13 <= 38
 0 <= y_a_14 <= 27
 0 <= y_a_15 <= 4
 0 <= y_a_16 <= 29
 0 <= y_a_17 <= 5
 0 <= y_a_18 <= 21
 0 <= y_a_19 <= 46
 0 <= y_a_20 <= 46
 0 <= y_a_21 <= 43
 0 <= y_a_22 <= 47
 0 <= y_a_23 <= 20
 0 <= y_a_42 <= 10
 0 <= y_a_24 <= 6
 0 <= y_a_25 <= 6
 0 <= y_a_26 <= 15
 0 <= y_a_27 <= 46
 0 <= y_a_28 <= 47
 0 <= y_a_29 <= 14
 0 <= y_a_41 <= 10
 0 <= y_a_30 <= 32
 0 <= y_a_31 <= 37
 0 <= y_a_32 <= 25
 0 <= y_a_33 <= 1
 0 <= y_a_34 <= 25
 0 <= y_a_39 <= 10
 0 <= y_a_40 <= 10
 0 <= y_a_43 <= 10000
 0 <= x_a_0 <= 1
 0 <= x_a_1 <= 1
 0 <= x_a_2 <= 1
 0 <= x_a_3 <= 1
 0 <= x_a_4 <= 1
 0 <= x_a_5 <= 1
 0 <= x_a_6 <= 1
 0 <= x_a_7 <= 1
 0 <= x_a_8 <= 1
 0 <= x_a_9 <= 1
 0 <= x_a_10 <= 1
 0 <= x_a_11 <= 1
 0 <= x_a_12 <= 1
 0 <= x_a_13 <= 1
 0 <= x_a_14 <= 1
 0 <= x_a_15 <= 1
 0 <= x_a_16 <= 1
 0 <= x_a_17 <= 1
 0 <= x_a_18 <= 1
 0 <= x_a_19 <= 1
 0 <= x_a_20 <= 1
 0 <= x_a_21 <= 1
 0 <= x_a_22 <= 1
 0 <= x_a_23 <= 1
 0 <= x_a_24 <= 1
 0 <= x_a_25 <= 1
 0 <= x_a_26 <= 1
 0 <= x_a_27 <= 1
 0 <= x_a_28 <= 1
 0 <= x_a_29 <= 1
 0 <= x_a_30 <= 1
 0 <= x_a_31 <= 1
 0 <= x_a_32 <= 1
 0 <= x_a_33 <= 1
 0 <= x_a_34 <= 1
 0 <= x_a_35 <= 1
 0 <= x_a_36 <= 1
 0 <= x_a_37 <= 1
 0 <= x_a_38 <= 1
 0 <= x_a_39 <= 1
 0 <= x_a_40 <= 1
 0 <= x_a_41 <= 1
 0 <= x_a_42 <= 1
 0 <= x_a_43 <= 1
Binaries
 y_a_33  x_a_0  x_a_1  x_a_2  x_a_3  x_a_4  x_a_5  x_a_6  x_a_7  x_a_8  x_a_9 
 x_a_10  x_a_11  x_a_12  x_a_13  x_a_14  x_a_15  x_a_16  x_a_17  x_a_18 
 x_a_19  x_a_20  x_a_21  x_a_22  x_a_23  x_a_24  x_a_25  x_a_26  x_a_27 
 x_a_28  x_a_29  x_a_30  x_a_31  x_a_32  x_a_33  x_a_34  x_a_35  x_a_36 
 x_a_37  x_a_38  x_a_39  x_a_40  x_a_41  x_a_42  x_a_43 
Generals
 y_a_35  y_a_36  y_a_37  y_a_38  y_a_0  y_a_1  y_a_2  y_a_3  y_a_4  y_a_5 
 y_a_6  y_a_7  y_a_8  y_a_9  y_a_10  y_a_11  y_a_12  y_a_13  y_a_14  y_a_15 
 y_a_16  y_a_17  y_a_18  y_a_19  y_a_20  y_a_21  y_a_22  y_a_23  y_a_42 
 y_a_24  y_a_25  y_a_26  y_a_27  y_a_28  y_a_29  y_a_41  y_a_30  y_a_31 
 y_a_32  y_a_34  y_a_39  y_a_40  y_a_43 
End
